NAME : tsp40_19.193.tour
COMMENT : Length = 193
COMMENT : Found by LKH [Keld Helsgaun]
TYPE : TOUR
DIMENSION : 40
TOUR_SECTION
1
8
11
5
19
16
22
25
12
7
20
33
3
18
27
23
28
15
37
39
24
13
6
10
26
38
14
34
31
35
21
9
36
17
32
29
40
4
2
30
-1
EOF
